NAME 
ROWS
 N  OBJ
 L  R0      
 L  R1      
 L  R2      
 E  R3      
 E  R4      
 E  R5      
 E  R6      
 E  R7      
 E  R8      
 E  R9      
 E  R10     
 E  R11     
 E  R12     
COLUMNS
    MARKER    'MARKER'                 'INTORG'
    I0(5)     OBJ       29
    I0(5)     R0        142
    I0(5)     R1        193
    I0(5)     R2        111
    I0(5)     R7        4
    I0(5)     R12       1
    I1(7)     OBJ       -12
    I1(7)     R0        -152
    I1(7)     R1        120
    I1(7)     R2        -100
    I1(7)     R4        2
    I1(7)     R7        4
    I1(7)     R8        8
    I1(7)     R12       1
    I2(7)     OBJ       -186
    I2(7)     R0        -117
    I2(7)     R1        18
    I2(7)     R2        -137
    I2(7)     R4        1
    I2(7)     R5        15
    I2(7)     R6        7
    I2(7)     R12       1
    I3(7)     OBJ       191
    I3(7)     R0        -89
    I3(7)     R1        -23
    I3(7)     R2        177
    I3(7)     R4        9
    I3(7)     R7        16
    I3(7)     R8        2
    I3(7)     R12       1
    I4(7)     OBJ       173
    I4(7)     R0        167
    I4(7)     R1        -159
    I4(7)     R2        19
    I4(7)     R3        9
    I4(7)     R5        17
    I4(7)     R6        10
    I4(7)     R12       1
    I5(4)     OBJ       -17
    I5(4)     R0        192
    I5(4)     R1        109
    I5(4)     R2        -75
    I5(4)     R12       1
    MARKER    'MARKER'                 'INTEND'
    C6(8)     OBJ       -5
    C6(8)     R0        1
    C6(8)     R1        -8
    C6(8)     R2        -8
    C6(8)     R3        6
    C6(8)     R4        12
    C6(8)     R6        11
    C6(8)     R7        17
    C6(8)     R11       17
    C7(7)     OBJ       4
    C7(7)     R0        4
    C7(7)     R1        9
    C7(7)     R2        -7
    C7(7)     R4        2
    C7(7)     R6        10
    C7(7)     R8        13
    C7(7)     R10       7
    C8(12)    OBJ       -9
    C8(12)    R0        2
    C8(12)    R1        3
    C8(12)    R2        -6
    C8(12)    R3        10
    C8(12)    R4        7
    C8(12)    R5        -1
    C8(12)    R6        19
    C8(12)    R7        10
    C8(12)    R8        7
    C8(12)    R9        15
    C8(12)    R10       17
    C8(12)    R11       2
    C9(6)     OBJ       5
    C9(6)     R0        -2
    C9(6)     R1        -1
    C9(6)     R2        -7
    C9(6)     R3        5
    C9(6)     R4        9
    C9(6)     R10       12
    C10(1)    R3        1
    C11(1)    R4        1
    C12(1)    R5        1
    C13(1)    R6        1
    C14(1)    R7        1
    C15(1)    R8        1
    C16(1)    R9        1
    C17(1)    R10       1
    C18(1)    R11       1
    C19(1)    R12       1
RHS
    RHS1      R0        -2.2915789473684211e+02
    RHS1      R1        4.3263157894736842e+01
    RHS1      R2        -2.8852631578947370e+02
    RHS1      R3        95
    RHS1      R4        79
    RHS1      R5        80
    RHS1      R6        60
    RHS1      R7        62
    RHS1      R8        78
    RHS1      R9        87
    RHS1      R10       79
    RHS1      R11       54
    RHS1      R12       2
BOUNDS
 UP BND1      I0(5)     2
 UP BND1      I1(7)     2
 UP BND1      I2(7)     2
 UP BND1      I3(7)     2
 UP BND1      I4(7)     2
 UP BND1      I5(4)     2
ENDATA
